100 3 100
64 13 57 41 6 78 13 45 3 37 34 99 59 69 48 86 82 66 99 50 35 34 59 91 60 3 49 96 92 48 89 8 14 46 50 72 24 15 70 79 52 4 78 11 25 27 98 7 45 49 58 32 36 69 23 96 24 72 92 16 20 81 25 86 79 27 59 56 42 29 35 94 33 14 58 11 93 8 18 90 57 28 22 93 97 45 41 73 69 86 90 89 19 67 76 99 46 87 55 88 
